200
150
120
119
119
119
119
118
118
116
116
116
116
116
116
116
115
114
114
114
113
113
112
112
112
110
110
109
109
109
109
108
108
108
108
107
107
106
106
105
105
104
104
102
102
102
101
101
100
100
100
99
99
99
99
97
97
97
97
97
97
96
95
95
95
95
95
95
94
94
94
94
93
93
92
91
91
91
90
89
88
88
88
87
87
86
86
85
85
84
84
84
83
83
83
83
83
82
82
81
81
81
80
80
79
78
78
78
78
78
77
77
77
76
76
75
75
74
74
73
72
71
71
70
70
69
68
68
67
67
67
66
66
65
64
64
64
64
62
62
61
60
60
59
58
58
58
57
57
57
56
56
56
56
55
54
53
52
52
52
51
51
50
50
49
49
49
49
48
46
45
44
43
41
41
40
39
39
38
38
38
38
37
37
37
36
36
36
36
35
35
34
33
33
33
32
31
31
31
31
31
30
